 # File generated with atomsk by huyo on 2018-11-20 15:12:59
1.000000
     18.20800000        0.00000000        0.00000000
      0.00000000       18.20800000        0.00000000
      0.00000000        0.00000000       18.20800000
O  Si   Ca    Al   
300      90      30      60
Cartesian
      4.80679000       14.83000000        9.78469000
      5.42288000       14.00220000       12.29080000
     15.71630000        5.48702000       15.22620000
     14.88790000        3.14531000       15.71720000
     10.93020000        9.81853000       15.50260000
     10.66880000        9.23891000       18.18860000
     14.82640000       14.62420000       14.98220000
     15.27230000       13.16170000       17.10480000
      9.62606000       16.31630000       14.21250000
     10.46670000        0.02054960       16.02670000
      1.31047000        0.48085800        7.99981000
      3.55517000        1.36924000        8.82792000
     17.34460000        0.49029700        2.60829000
     16.20810000        1.69774000       18.16430000
      7.51075000        0.26735000       10.42810000
      6.28897000        2.29394000        9.06929000
     12.70070000        6.44207000       10.02340000
     15.11740000        5.55721000       10.14340000
     10.53330000        6.81832000        1.71581000
      8.05731000        6.25158000        2.06419000
     10.02010000       14.26350000        0.28209400
     12.11760000       15.35950000        1.26495000
      6.10187000       15.13630000        0.82171100
      4.21683000       15.34090000        2.78258000
      0.71142100        8.68768000        7.44611000
     16.96520000        7.23697000        6.69090000
      2.65689000        4.85389000        7.90616000
      0.58569900        6.38179000        8.65311000
      2.19534000       11.69040000       16.92270000
      3.23311000        9.41001000       16.75420000
      2.50844000       13.72740000        1.02539000
      1.77204000       16.68690000        1.21076000
      1.58512000        1.04251000        2.42090000
      0.36614300        1.11059000        0.32791300
      5.73857000        1.20176000        5.27401000
      3.50084000        0.30164400        6.47897000
     14.45800000       18.01770000        0.28203800
     13.50900000        2.55521000        0.19166300
      9.00994000        0.80735100       13.94450000
      6.53301000        1.23498000       13.32310000
     16.70450000        0.13012400       10.88490000
     15.22820000       17.74400000        8.67044000
      4.77169000        7.48536000       11.79010000
      3.02580000        7.49597000        9.83145000
     12.98340000        0.93645500        2.15120000
     14.55440000        0.10287400        3.91299000
      3.70994000       15.60170000        0.05529290
      5.48145000       16.69100000       16.55450000
      3.05493000       15.67510000       15.77530000
      1.32019000       13.80190000       14.96820000
      3.10509000       11.24980000       13.69460000
      0.77262100       10.61890000       12.62470000
     12.11630000       13.10890000       10.85560000
     11.51320000       13.10790000        8.27562000
      5.54364000        9.10219000        0.36991400
      6.33185000       10.91880000        1.85002000
     16.25950000       11.29920000        3.03693000
     17.14150000        9.93854000        5.30684000
      4.22876000        2.72985000       13.48380000
      2.64091000        0.57030600       12.73040000
     16.66940000        2.93521000       13.94780000
     13.86520000        2.77956000       13.42200000
     11.64640000        5.68402000        3.69091000
      9.73315000        7.21569000        4.23198000
      0.49085800        1.81639000       10.22730000
     16.91940000        1.69980000        8.27080000
      2.94650000       14.11620000        7.46875000
      4.19120000       11.96950000        6.37322000
      6.06218000        9.74986000       12.10170000
      7.05710000        7.67695000       10.71160000
      9.16935000        4.81219000        5.38411000
      7.41854000        6.70288000        4.72046000
     16.53840000       14.74510000        0.47927800
     17.18800000       12.48420000        0.58766300
     11.61260000       11.30790000        4.18795000
     13.27160000       11.60130000        6.41157000
      1.80222000       13.32170000       12.12330000
      2.12302000       15.60540000       13.26530000
      0.25507800       11.29020000        7.74077000
      0.33374900        9.83863000        9.95840000
      0.20113800       16.92040000        6.37504000
      0.45099100       16.69320000        3.59049000
      6.07869000        6.38489000        0.33689700
      4.58098000        6.59907000        2.47683000
     16.65110000        8.82561000       17.46080000
     14.12970000        8.66622000        0.32162600
      2.45386000       15.37400000       10.77460000
      3.15938000       16.84120000        8.60646000
      6.48851000       15.51680000       14.46630000
      7.63128000       17.80830000       15.91140000
     16.61040000        4.17280000       17.43100000
     14.24920000        5.22758000       17.29700000
     12.26300000        4.49772000        1.42302000
     10.97900000        2.34251000        0.45736300
      0.02262290       12.09150000        4.50419000
     17.03600000       13.86530000        2.85319000
     15.12820000        8.16670000        4.60709000
     13.73570000        6.97005000        2.72043000
     17.93040000       12.37990000        9.99548000
      0.08198590       14.84340000       10.71250000
      2.99990000        7.24698000        6.88639000
      5.01382000        6.29066000        8.39865000
      6.86589000       15.02420000        3.67273000
      9.10492000       15.44460000        4.96845000
      7.86286000       10.31640000       14.92560000
      6.38897000       12.66730000       14.74460000
      0.67902300        4.70289000       15.43000000
      3.78606000        4.61968000       15.17770000
     11.18080000        8.59464000       10.62790000
     11.74180000        7.77468000        8.09718000
      9.27297000        4.88443000       15.40550000
      8.41157000        3.29347000       13.52590000
      8.76550000        2.98072000        7.10998000
      6.80880000        3.95376000        5.74294000
     13.25300000        3.80544000        9.57784000
     14.24900000        2.03017000        7.70380000
     12.81850000       12.43330000       13.88070000
     13.00770000        9.80429000       13.99280000
     15.57490000       16.03490000       10.68360000
     13.89440000       14.50510000       12.31140000
     11.10710000       10.62920000       12.37050000
      9.28226000        8.68338000       12.49980000
      9.10040000       16.32720000        2.83006000
      8.03506000       17.95600000        4.51613000
      4.93158000       17.46520000        1.35600000
      7.42755000       17.51340000        1.13307000
     11.10550000        3.82751000       13.81360000
     13.06890000        4.78466000       11.99920000
      9.36120000        1.00166000        2.44336000
      8.14478000        2.52275000        4.13409000
     11.49980000       11.01840000        9.25839000
     10.66110000       11.19120000        6.72554000
     14.56650000       15.87020000        1.67394000
     14.54170000       13.39040000        1.45752000
     12.68570000        1.09136000        5.09170000
     10.46580000        2.37617000        5.37715000
      0.01486460        1.35440000       12.58080000
     15.59060000        0.93082800       13.05660000
      7.65974000       15.33290000       16.84840000
      5.38927000       14.26480000       16.78560000
      1.08162000        7.80037000       16.66400000
      2.27587000        6.55480000       14.96990000
     15.24800000       10.67210000        0.36674400
     12.86810000       10.66170000        1.66513000
     12.07850000       15.89870000        7.56926000
     13.35880000       15.12320000        9.81208000
      6.45047000       10.63450000        9.67697000
      4.54815000       11.80000000       11.17720000
      2.55438000        2.47988000       11.50860000
      1.46558000       18.02260000       10.60420000
      8.42379000        6.84433000       17.84420000
      7.41854000        4.42777000       17.55520000
      4.26905000        9.13141000        2.67915000
      2.32352000        7.41854000        3.29164000
     12.22770000       16.51840000       11.92670000
     11.25660000        1.06047000       11.39780000
     10.20340000        3.63180000        2.85963000
     12.72090000        3.06873000        3.56282000
     11.52520000        7.75925000       13.60600000
     12.64860000        7.93847000       16.00280000
      0.10407900        2.37322000        6.40372000
      0.13193400        3.97465000        8.41701000
      7.54907000       13.01290000        0.23919200
      5.06982000       12.61340000        0.52216500
      6.40997000       16.45990000        8.68519000
      5.58850000       14.13250000        7.31435000
      6.23642000        1.07783000       17.88060000
      8.75246000        0.97733400       17.82970000
     17.79810000        9.72799000       14.88850000
     17.55260000       11.64380000       16.44120000
     16.85180000        7.98080000        9.21619000
     17.37720000        8.30935000       11.92810000
      2.95365000        7.66867000        0.68813500
      0.46634700        7.25006000        1.13876000
     16.17990000       16.39470000        4.62796000
     14.23350000       16.94720000        6.18451000
     15.41740000        4.42295000        1.59870000
     17.57350000        3.02455000        1.92778000
      1.47332000        4.71754000       10.47490000
      1.12601000        3.85219000       12.99150000
      3.69633000        0.31774400        3.91853000
      2.49730000        5.29759000       17.30180000
      7.29755000        2.10002000       15.65560000
      5.57370000        9.21379000        6.02108000
     18.12610000       14.64110000        5.26337000
      2.17334000        9.07867000       14.32420000
      0.00890057        7.41485000       14.18790000
     17.91620000       17.80170000       14.41380000
      3.04256000        9.32486000       11.82260000
     15.99480000        6.53781000        0.26791500
     16.57370000        8.73872000        1.87886000
     15.11310000        2.37735000        3.17518000
     10.57650000        0.26945200        6.81133000
      4.27946000        4.00428000       10.07770000
      6.94612000       13.88230000        9.58408000
      1.43826000       13.94990000        3.42709000
      4.15103000        3.39677000        4.10650000
     17.06800000       14.50250000        8.56782000
      6.23664000        5.92635000       15.91150000
      0.90168200       14.87110000       17.75990000
     17.72540000       17.25870000        9.03920000
      8.89113000        7.00966000        6.88627000
     10.67820000       17.81510000        4.40143000
     15.91610000       16.30690000       16.63670000
      3.86790000        0.63629100       15.44880000
     15.75670000       13.59710000       10.72810000
     16.10680000        2.67490000       11.14290000
      8.98874000       12.11450000        8.66576000
      4.88253000        3.58629000        0.10114100
     11.78690000        2.45945000        7.75076000
     16.03340000       12.21070000        6.81717000
     16.23670000        0.40580300        6.09778000
     16.90960000       17.41350000        0.58254500
     17.39900000        5.44717000       12.60480000
     13.93920000       12.19250000        8.97865000
      1.78397000       17.91220000       16.96510000
      3.21438000       10.87800000        0.91979800
      8.07945000       10.16240000        0.17683800
      3.95348000       13.89020000       14.44070000
      6.34907000       11.22630000       17.01460000
     16.68360000        4.52617000        3.86949000
      2.18227000       11.79400000        9.81450000
     15.38330000       10.78070000       15.91200000
      4.93953000        1.59119000       11.18740000
      4.54754000        5.43324000        6.00260000
      3.61239000        9.73733000        8.03518000
      2.61896000        2.77610000       16.69700000
     10.29010000       17.15950000        0.62571900
     11.41710000       18.10910000       13.71910000
     15.82370000        1.02101000       15.41580000
      6.92125000        7.75886000       13.52250000
      1.73985000        7.21163000       12.10770000
      9.50443000        5.73794000       12.86940000
      3.28863000        1.05189000        0.25640700
      0.77166400        0.57605300        4.79650000
     15.99890000       10.06090000       10.47890000
     10.73950000       14.32230000       12.78070000
      2.89096000        9.59617000        5.61995000
      6.24497000        1.15607000        2.50292000
     17.99390000        2.02256000       15.93850000
      6.81851000        8.36081000       16.24570000
      9.23846000        7.62133000       14.99730000
     13.60230000       10.99650000       11.75200000
     14.33630000        8.48277000       11.95560000
      7.94061000        2.99475000        1.49257000
      6.12560000        4.68646000        2.25706000
      1.33374000        3.52599000        3.79820000
      2.21544000        3.55491000        1.23466000
     16.09970000        4.08742000        7.09792000
     14.46140000        5.76930000        5.01378000
     15.90600000       10.26420000       13.44990000
     15.54560000        8.07043000       14.44780000
      4.60707000       17.15040000       10.70070000
      6.82481000       15.79790000       11.19080000
     13.45170000       17.36290000       15.53920000
     11.44040000       15.78200000       16.96490000
     10.14430000       11.30220000        1.77875000
     11.58440000        8.73861000        3.09291000
     12.14990000       17.54080000        9.48029000
     10.79820000       15.36750000       10.10860000
      4.57940000        7.72950000       14.68420000
      5.22287000       10.31880000       15.02170000
     11.89640000        4.14962000       16.94350000
      9.76879000        4.84857000        0.19314900
     10.40560000        4.62452000        8.04414000
     13.30830000        4.55857000        7.10917000
      9.09207000       10.22860000       10.47190000
      7.22962000       12.11180000       11.45960000
      0.42465200        9.98571000        3.07659000
      1.20250000        9.47346000        0.35692000
      3.33283000        5.02511000       12.43310000
      5.92756000        5.26536000       13.26140000
      3.69754000       12.67350000        3.15718000
      2.31244000       15.84480000        5.04972000
      6.51432000        8.06114000        2.52161000
      8.90677000        8.92769000        2.42882000
     17.96240000       14.83470000       13.09030000
     17.14570000       12.34940000       14.14390000
     12.65160000       15.27000000        4.69720000
     14.17690000       14.22970000        6.97309000
     12.66080000        7.50703000        5.36227000
     14.39950000        6.93413000        7.47457000
     12.38450000        1.94223000       15.43070000
     13.19450000        4.86465000       14.69290000
     13.96530000       15.26810000       17.51440000
     17.15400000       14.27810000       16.05550000
      4.31060000       14.21600000        5.11958000
      5.26228000       16.82460000        5.19965000
     12.44170000       13.36910000       18.05460000
     12.69660000       10.55650000       17.26730000
     12.36680000       15.09490000       14.68030000
     10.21240000       13.73690000       15.63490000
     15.80350000        9.47351000        7.39597000
     13.73980000        8.80807000        9.41531000
      9.89251000        2.66202000       16.21480000
     12.22940000        0.44429700       17.69190000
      8.95326000       13.64990000        2.66421000
     10.30870000       11.70760000       17.38770000
      8.77710000        2.62326000        9.83554000
      7.82510000        5.18800000        9.03609000
      6.04989000       14.37890000       10.89510000
     14.40430000        4.70499000       15.73910000
     11.08710000       10.32570000       17.03240000
     15.58090000       14.67990000       16.45070000
      9.98775000       17.86840000       14.51800000
      2.93131000        0.14379100        7.98563000
     17.10070000        0.78517900        0.96920200
      7.42715000        1.80304000       10.06250000
     13.58850000        5.13391000       10.49410000
      9.26941000        6.21071000        0.89981400
     10.85250000       15.68110000        0.27226700
      4.75511000       15.86660000        1.35994000
     17.91610000        7.54556000        7.97289000
      1.35817000        4.96280000        8.87568000
      2.39060000       10.38950000       17.83730000
      2.11099000       15.23070000        0.53466400
      0.57545600        0.08664580        3.29448000
      4.55426000        0.06584360        5.24987000
     13.37050000        0.95467100        0.54945500
      7.78656000        1.88285000       14.06480000
     16.25570000       17.19570000        9.80005000
      3.15329000        7.71099000       11.41130000
     13.64230000        1.59263000        3.58762000
      4.34158000       15.58030000       16.74000000
      2.56872000       14.70950000       14.53270000
      2.24391000       10.10030000       12.97190000
     12.42560000       12.37880000        9.47447000
      5.72469000        9.42325000        1.98541000
     17.45790000       10.76130000        3.93162000
      3.90390000        1.57911000       12.41570000
     15.14240000        2.12341000       14.26680000
     11.08420000        7.20457000        3.25218000
      0.43288600        0.37479200        9.39742000
      4.21349000       13.57100000        6.62018000
      6.29387000        8.13815000       12.06300000
      8.91712000        6.42691000        5.40218000
     16.16730000       13.39830000        1.52290000
     11.87410000       11.41360000        5.69796000
      1.20940000       14.89600000       11.97290000
      0.75195200       11.29100000        9.28622000
      0.73420500       16.08500000        5.08226000
      6.23345000        6.32804000        2.01752000
     15.72510000        9.06003000        0.55155300
      3.65570000       16.05820000        9.97622000
      6.92486000       16.35850000       15.78130000
     15.51530000        4.99844000        0.10888600
     12.12880000        3.46463000        0.17798900
     18.16480000       13.62640000        3.99706000
     13.88200000        7.13777000        4.32477000
     17.21820000       13.84070000       10.01540000
      3.77911000        5.93140000        7.41916000
      8.47346000       14.89950000        3.53142000
      6.57988000       11.18300000       15.29070000
      2.28578000        5.07020000       15.65600000
     12.30400000        7.97338000        9.62225000
      9.51562000        4.45336000       13.83580000
      8.34008000        3.37988000        5.55256000
     13.19660000        3.23213000        8.06920000
     12.53570000       11.11740000       12.99700000
     14.58090000       14.75020000       10.86500000
     10.17820000        9.60271000       11.49990000
      9.30778000       16.95860000        4.38837000
      6.13848000        0.28839500        1.12384000
     12.75120000        3.99915000       13.36550000
      9.00195000        2.56909000        2.63560000
     10.47750000       11.81690000        8.20360000
     13.44110000       14.43280000        0.72953000
     11.09280000        0.85768900        5.38308000
     16.66160000        1.39430000       11.88900000
      6.78985000       14.34030000       17.79540000
      1.32152000        7.86153000       15.02740000
     13.64040000       10.29910000        0.33210300
     12.03370000       15.93520000        9.18773000
      5.98367000       11.09080000       11.19630000
      1.43204000        1.17234000       11.62420000
      7.10928000        6.04301000       17.25790000
      3.46382000        7.78866000        2.23891000
     11.86090000       18.04410000       12.17370000
     11.74450000        4.22016000        2.96870000
     11.95520000        8.76330000       14.79950000
     17.34930000        3.10307000        7.48849000
      6.48827000       11.77120000        0.44166100
      6.14001000       14.87870000        8.58439000
      7.50151000        0.96316700       16.81810000
     16.72490000       10.99030000       15.01980000
     17.24020000        9.02120000       10.46510000
      1.45370000        7.85342000        0.02643440
     15.30160000       17.62180000        5.15090000
     16.19330000        3.50647000        2.73534000
      2.21482000        4.07850000       11.76710000
      3.93426000        1.93998000        2.28987000
      0.55480700        3.38232000       17.68370000
      4.99625000        2.65266000       15.85330000
      4.20302000        7.72526000        4.87164000
     16.73050000       16.14470000        2.45124000
      1.12105000       11.54290000       14.88050000
     17.20130000        6.77925000       16.34380000
     17.63620000       17.87170000       16.66130000
      5.20566000        8.53103000        9.22199000
     14.81080000        7.52296000       16.53010000
     16.12520000        6.54516000        2.80438000
     12.58370000        6.78946000        0.35944400
     12.84310000        0.12727600        7.45036000
      5.95740000        5.53498000       10.54260000
      8.87759000       15.37620000       12.04350000
      2.22532000       11.24270000        4.21093000
      2.37148000        2.19931000        5.33145000
     16.24440000       15.17740000        6.59558000
      4.50181000        7.30949000       17.01970000
      4.26998000       12.26290000       16.07880000
      1.10041000       15.42260000        8.26912000
      6.80866000        5.97282000        7.05695000
     12.86770000       16.83760000        3.01041000
     15.57870000       17.02550000       14.39380000
      2.04976000       17.55530000       14.62230000
     16.79300000       11.77910000       11.92470000
     17.18760000        4.55326000       10.42070000
      9.01963000        7.41404000        9.24513000
      2.81508000        5.08202000        3.08919000
     10.47100000        0.98271700        9.16679000
     17.02150000       10.83450000        6.88239000
     15.52350000        0.89734500        7.65783000
     15.36730000       16.51730000        0.17732700
     17.85820000        4.29901000       13.87840000
     14.43080000       12.55560000        7.32447000
      2.89956000        1.03633000       16.77170000
      3.61722000       12.46780000        1.47354000
      9.48940000        9.83805000        1.10174000
      5.65540000       14.03250000       13.98110000
      6.82232000        9.50759000       17.45650000
     16.18600000        8.59192000        5.87787000
      2.93812000       12.35120000       11.24620000
     16.05810000       11.64900000       17.37760000
      4.63374000        2.41146000        9.66283000
      5.23773000        4.09574000        5.15208000
      4.30998000       10.26790000        6.52474000
      3.19590000        3.79042000       18.01670000
      9.03898000       17.70840000        1.65554000
     12.25140000        0.31001600       15.90860000
     16.32780000        2.46225000       16.61610000
      5.90051000        6.60983000       14.35810000
      0.08808040        6.88337000       12.49350000
      9.86372000        7.33031000       13.41270000
      1.82993000        0.11384700        0.57776600
     18.19640000        0.55119200        6.36172000
     16.96540000        8.72514000       13.67380000
     13.53170000       14.00850000       13.94390000
      2.39682000        8.85849000        7.15703000
      7.00790000        1.09249000        4.09341000
     17.56650000        1.30385000       14.38000000
      7.86678000        8.59107000       14.79840000
     14.31810000        9.77584000       10.78430000
      6.52111000        3.72109000        0.78871700
      1.04354000        2.76449000        2.31463000
     14.90530000        5.27895000        6.62437000
     14.54100000        9.12655000       13.52670000
      6.32318000       17.23550000       10.33540000
     12.97990000       15.82590000       16.13700000
     11.50700000       10.48490000        2.68757000
     11.84720000       14.74370000       11.50970000
      3.87091000        9.26219000       15.03340000
      9.12617000        4.04100000       16.97040000
     10.55520000        3.32011000        6.88304000
      8.00482000       11.48450000        9.93008000
      0.09427850        8.84159000        1.84830000
      4.47108000        4.44000000       13.57340000
      3.12685000       14.28550000        3.78747000
      8.12023000        7.68305000        3.32114000
     17.84340000       13.90630000       14.50810000
     13.17620000       15.46520000        6.29786000
     12.69000000        6.87376000        6.97458000
     11.34840000        3.30355000       15.53710000
     17.79420000       13.77460000       17.65020000
      5.29716000       15.37760000        4.29573000
     10.90480000       13.32250000       17.16010000
     10.64650000       14.84160000       14.41500000
     15.13230000        8.21289000        8.45753000
     10.47040000        0.84182800       17.71740000
      9.42693000       12.83140000        1.19807000
      8.94037000        3.94996000        8.69983000
